decision_x1=[0,7];
decision_x2=[0,7];
decision_x3=[0,7];
decision_x4=[0,7];
decision_x5=[0,7];
decision_x6=[0,7];
decision_x7=[0,7];
decision_x8=[0,7];
decision_x9=[0,7];
decision_x10=[0,7];
decision_x11=[0,7];
decision_x12=[0,7];
decision_x13=[0,7];
decision_x14=[0,7];
decision_x15=[0,7];
decision_x16=[0,7];
decision_x17=[0,7];
decision_x18=[0,7];
decision_x19=[0,7];
decision_x20=[0,7];
random_y1=[0,7];
random_y2=[0,7];
random_y3=[0,7];
random_y4=[0,7];
random_y5=[0,7];
random_y6=[0,7];
random_y7=[0,7];
random_y8=[0,7];
random_y9=[0,7];
constraint_x2_x1=[
0,0,2.8|
0,1,2.9|
0,2,3.6|
0,3,9|
0,4,4.7|
0,5,7|
0,6,6|
0,7,3.8|
1,0,0.44|
1,1,5.7|
1,2,8.9|
1,3,9.2|
1,4,6.3|
1,5,4.1|
1,6,5.8|
1,7,4.6|
2,0,0.044|
2,1,9.4|
2,2,7.8|
2,3,8.9|
2,4,3.7|
2,5,0.53|
2,6,8.4|
2,7,8.8|
3,0,2.3|
3,1,8.9|
3,2,5.6|
3,3,2.4|
3,4,4.8|
3,5,8.5|
3,6,9.3|
3,7,9|
4,0,1.8|
4,1,7.3|
4,2,5.4|
4,3,5.5|
4,4,8.1|
4,5,8|
4,6,5.5|
4,7,6.7|
5,0,2.8|
5,1,0.086|
5,2,3.5|
5,3,4.5|
5,4,1.2|
5,5,6.1|
5,6,5.5|
5,7,6.6|
6,0,1.4|
6,1,7.5|
6,2,8.7|
6,3,7.9|
6,4,7.3|
6,5,6.5|
6,6,8|
6,7,9.5|
7,0,1.9|
7,1,3.7|
7,2,0.29|
7,3,9.8|
7,4,6.4|
7,5,4.9|
7,6,5.5|
7,7,4.8|
];
constraint_x3_x2=[
0,0,3.2|
0,1,9.1|
0,2,6.8|
0,3,5.9|
0,4,5.4|
0,5,8.8|
0,6,8|
0,7,3.6|
1,0,7|
1,1,2.9|
1,2,1.4|
1,3,6.3|
1,4,8|
1,5,3.3|
1,6,4.4|
1,7,3.8|
2,0,1.1|
2,1,8.8|
2,2,0.96|
2,3,4.7|
2,4,2.6|
2,5,3.1|
2,6,8.9|
2,7,7.6|
3,0,1.4|
3,1,8.7|
3,2,0.039|
3,3,5.9|
3,4,0.52|
3,5,4.5|
3,6,3.2|
3,7,7.4|
4,0,7.2|
4,1,1.6|
4,2,4.7|
4,3,0.54|
4,4,4.2|
4,5,4.2|
4,6,8.3|
4,7,0.077|
5,0,7.5|
5,1,4.5|
5,2,5.8|
5,3,2.4|
5,4,2.9|
5,5,7.3|
5,6,0.82|
5,7,5.6|
6,0,6.3|
6,1,3.8|
6,2,5.9|
6,3,5.4|
6,4,4.3|
6,5,2.3|
6,6,4.4|
6,7,7.6|
7,0,5.2|
7,1,1.6|
7,2,7.3|
7,3,4.1|
7,4,6.9|
7,5,2.7|
7,6,0.97|
7,7,2.2|
];
constraint_x4_x3=[
0,0,0.59|
0,1,3.3|
0,2,3.2|
0,3,3.7|
0,4,7.2|
0,5,0.91|
0,6,1.8|
0,7,4.4|
1,0,7.2|
1,1,0.34|
1,2,0.86|
1,3,8.9|
1,4,1.5|
1,5,8.9|
1,6,3.1|
1,7,0.58|
2,0,7.5|
2,1,4.9|
2,2,8.9|
2,3,7.9|
2,4,4.5|
2,5,5.2|
2,6,8.3|
2,7,4.2|
3,0,8.2|
3,1,0.046|
3,2,9.8|
3,3,1.3|
3,4,9.4|
3,5,6.1|
3,6,8.9|
3,7,6.9|
4,0,6.2|
4,1,9.3|
4,2,5.7|
4,3,8.5|
4,4,4|
4,5,0.15|
4,6,3|
4,7,5.7|
5,0,8|
5,1,0.39|
5,2,8.1|
5,3,5.7|
5,4,5|
5,5,6.8|
5,6,2.6|
5,7,3.2|
6,0,6.6|
6,1,1.3|
6,2,5.1|
6,3,7.4|
6,4,7.9|
6,5,3.7|
6,6,3.1|
6,7,3.1|
7,0,3.1|
7,1,1.8|
7,2,0.85|
7,3,7.5|
7,4,6.9|
7,5,2|
7,6,5.2|
7,7,2.9|
];
constraint_x5_x1=[
0,0,3.6|
0,1,1.6|
0,2,6.3|
0,3,3|
0,4,5.4|
0,5,2.5|
0,6,2.5|
0,7,0.94|
1,0,0.43|
1,1,9.9|
1,2,0.75|
1,3,1.9|
1,4,8.6|
1,5,6.9|
1,6,4.6|
1,7,9.1|
2,0,0.25|
2,1,9.6|
2,2,6.6|
2,3,1.1|
2,4,8.7|
2,5,0.12|
2,6,1.1|
2,7,2.9|
3,0,0.79|
3,1,3.2|
3,2,7.7|
3,3,1.2|
3,4,2.9|
3,5,3.8|
3,6,7.8|
3,7,3.5|
4,0,6.2|
4,1,6.7|
4,2,3.8|
4,3,0.94|
4,4,3.8|
4,5,8|
4,6,2.5|
4,7,1.1|
5,0,0.036|
5,1,2|
5,2,4.5|
5,3,4.2|
5,4,1|
5,5,8.5|
5,6,9.6|
5,7,2|
6,0,1.5|
6,1,8.9|
6,2,4.2|
6,3,8.2|
6,4,4.4|
6,5,2.3|
6,6,0.99|
6,7,6.7|
7,0,1.5|
7,1,1.2|
7,2,10|
7,3,9.7|
7,4,1.6|
7,5,9.4|
7,6,5.7|
7,7,9.3|
];
constraint_x6_x2=[
0,0,8.5|
0,1,6.5|
0,2,7.9|
0,3,6.5|
0,4,7|
0,5,3.3|
0,6,7.9|
0,7,5.1|
1,0,0.92|
1,1,9.2|
1,2,3.1|
1,3,3.3|
1,4,8.2|
1,5,6.5|
1,6,6.6|
1,7,3.2|
2,0,9.3|
2,1,5.4|
2,2,4.3|
2,3,1.6|
2,4,1.7|
2,5,5.5|
2,6,7.2|
2,7,2.1|
3,0,0.65|
3,1,3.7|
3,2,3|
3,3,9|
3,4,0.37|
3,5,7.3|
3,6,0.13|
3,7,8.6|
4,0,0.41|
4,1,8.5|
4,2,9.4|
4,3,7.3|
4,4,0.061|
4,5,3.8|
4,6,8.4|
4,7,8.8|
5,0,3.7|
5,1,9.1|
5,2,5.5|
5,3,6.3|
5,4,2.4|
5,5,3.8|
5,6,5.9|
5,7,7.3|
6,0,8|
6,1,6.9|
6,2,5.9|
6,3,6|
6,4,8.3|
6,5,5.8|
6,6,7.2|
6,7,2.1|
7,0,4.8|
7,1,0.55|
7,2,9.7|
7,3,2.9|
7,4,5.9|
7,5,8.2|
7,6,8.6|
7,7,7.4|
];
constraint_x6_x5=[
0,0,4.6|
0,1,3|
0,2,7.6|
0,3,1.7|
0,4,9.2|
0,5,2.2|
0,6,9|
0,7,1.4|
1,0,2.5|
1,1,0.42|
1,2,8.3|
1,3,0.96|
1,4,1.8|
1,5,5|
1,6,6.7|
1,7,1.9|
2,0,9.5|
2,1,1.3|
2,2,1.1|
2,3,5.6|
2,4,7.4|
2,5,8.2|
2,6,9.9|
2,7,3.2|
3,0,1.5|
3,1,8.2|
3,2,5.1|
3,3,8.4|
3,4,5.9|
3,5,3.2|
3,6,2.3|
3,7,4.6|
4,0,2.5|
4,1,3.3|
4,2,8.3|
4,3,2.9|
4,4,0.62|
4,5,2.1|
4,6,7.4|
4,7,4.6|
5,0,8.4|
5,1,7.6|
5,2,4.9|
5,3,10|
5,4,3.3|
5,5,7.2|
5,6,2.2|
5,7,5.5|
6,0,9|
6,1,5.9|
6,2,6.5|
6,3,9.8|
6,4,9.1|
6,5,6.2|
6,6,5.8|
6,7,2.2|
7,0,8.6|
7,1,1.3|
7,2,4.3|
7,3,7.1|
7,4,3.3|
7,5,5.2|
7,6,1.9|
7,7,3.4|
];
constraint_x7_x3=[
0,0,3.5|
0,1,5.2|
0,2,8.6|
0,3,1.9|
0,4,3.1|
0,5,3.2|
0,6,3.1|
0,7,7.2|
1,0,6.2|
1,1,9.1|
1,2,4.2|
1,3,2|
1,4,1.5|
1,5,1|
1,6,0.47|
1,7,2.1|
2,0,0.08|
2,1,4.4|
2,2,7.8|
2,3,2.9|
2,4,2.9|
2,5,9.3|
2,6,9.5|
2,7,8.9|
3,0,6.1|
3,1,0.57|
3,2,9|
3,3,9.1|
3,4,2.8|
3,5,9.9|
3,6,4.1|
3,7,8.3|
4,0,5.5|
4,1,6.8|
4,2,5.2|
4,3,0.05|
4,4,6.8|
4,5,1.6|
4,6,9.6|
4,7,9.1|
5,0,9.2|
5,1,7.3|
5,2,6.7|
5,3,6|
5,4,3|
5,5,5.3|
5,6,2.2|
5,7,6.6|
6,0,9.6|
6,1,8.6|
6,2,9.6|
6,3,1.1|
6,4,0.65|
6,5,4.2|
6,6,3.6|
6,7,9.7|
7,0,4.3|
7,1,3.5|
7,2,6.9|
7,3,3.7|
7,4,9.8|
7,5,3.2|
7,6,1.1|
7,7,8.8|
];
constraint_x7_x6=[
0,0,6.2|
0,1,7.1|
0,2,0.15|
0,3,4.5|
0,4,1.2|
0,5,4.9|
0,6,9.9|
0,7,2.1|
1,0,2.4|
1,1,8.5|
1,2,7|
1,3,4.4|
1,4,8.9|
1,5,6.9|
1,6,6|
1,7,8.3|
2,0,7.7|
2,1,5.1|
2,2,8.4|
2,3,3.6|
2,4,2.6|
2,5,8.5|
2,6,2.5|
2,7,4.9|
3,0,7.4|
3,1,5.2|
3,2,0.47|
3,3,7.2|
3,4,5.9|
3,5,5.9|
3,6,6.8|
3,7,3.2|
4,0,2|
4,1,9.4|
4,2,5.5|
4,3,7.3|
4,4,4.8|
4,5,5.7|
4,6,5.3|
4,7,5.8|
5,0,9.3|
5,1,3.5|
5,2,2|
5,3,1.7|
5,4,4.6|
5,5,1.1|
5,6,4.1|
5,7,6.1|
6,0,3|
6,1,0.45|
6,2,7.4|
6,3,9.7|
6,4,2.1|
6,5,8.1|
6,6,1.2|
6,7,4.6|
7,0,4.6|
7,1,0.69|
7,2,6.4|
7,3,0.73|
7,4,3.1|
7,5,7|
7,6,9.5|
7,7,5.5|
];
constraint_x8_x4=[
0,0,8.8|
0,1,3.3|
0,2,0.59|
0,3,1.7|
0,4,1.5|
0,5,9.5|
0,6,0.12|
0,7,9.8|
1,0,9.4|
1,1,6.1|
1,2,1.5|
1,3,3.6|
1,4,4.4|
1,5,7.3|
1,6,9.7|
1,7,8.6|
2,0,9.5|
2,1,6.9|
2,2,5|
2,3,8.6|
2,4,3.2|
2,5,2.1|
2,6,7.8|
2,7,1.9|
3,0,8.4|
3,1,8.2|
3,2,6.2|
3,3,2.5|
3,4,0.95|
3,5,8.6|
3,6,5.9|
3,7,5.2|
4,0,7.2|
4,1,1|
4,2,8.8|
4,3,6.9|
4,4,8.6|
4,5,4.5|
4,6,4.8|
4,7,9.4|
5,0,4.2|
5,1,5.6|
5,2,9.2|
5,3,10|
5,4,2.2|
5,5,0.94|
5,6,7.8|
5,7,4.8|
6,0,1|
6,1,9.9|
6,2,3.1|
6,3,4.9|
6,4,5.1|
6,5,7|
6,6,2.2|
6,7,3.9|
7,0,2.6|
7,1,1.1|
7,2,6.9|
7,3,2.5|
7,4,1.3|
7,5,0.41|
7,6,6|
7,7,7.3|
];
constraint_x8_x7=[
0,0,3.6|
0,1,0.41|
0,2,5.4|
0,3,2.2|
0,4,6.1|
0,5,1.4|
0,6,1.6|
0,7,5.9|
1,0,3.5|
1,1,6.8|
1,2,3|
1,3,7.8|
1,4,7.8|
1,5,4.8|
1,6,4.4|
1,7,6.6|
2,0,5.5|
2,1,2.9|
2,2,5.5|
2,3,7.9|
2,4,2|
2,5,4.4|
2,6,4|
2,7,1.9|
3,0,9.6|
3,1,9.2|
3,2,5.2|
3,3,9.9|
3,4,8.8|
3,5,9.3|
3,6,7.1|
3,7,2.6|
4,0,2.2|
4,1,9.8|
4,2,6.7|
4,3,8.7|
4,4,1.7|
4,5,7.6|
4,6,9.7|
4,7,2.3|
5,0,3.9|
5,1,3|
5,2,4.7|
5,3,3.9|
5,4,6.7|
5,5,5.6|
5,6,2.1|
5,7,7.5|
6,0,4.2|
6,1,9.7|
6,2,5.3|
6,3,8.5|
6,4,8.4|
6,5,3.8|
6,6,3.9|
6,7,6|
7,0,8.9|
7,1,2.2|
7,2,9.7|
7,3,2.8|
7,4,6.2|
7,5,4.4|
7,6,4.4|
7,7,5.8|
];
constraint_x9_x5=[
0,0,3.8|
0,1,9.1|
0,2,8.1|
0,3,0.75|
0,4,1.5|
0,5,9.5|
0,6,4.4|
0,7,5.9|
1,0,0.44|
1,1,3.9|
1,2,6.6|
1,3,6.3|
1,4,2.5|
1,5,4.2|
1,6,7.2|
1,7,8.4|
2,0,9.9|
2,1,5.4|
2,2,4.1|
2,3,4.3|
2,4,5.7|
2,5,6.3|
2,6,9.1|
2,7,9.3|
3,0,6.7|
3,1,0.57|
3,2,8.1|
3,3,6.8|
3,4,5.7|
3,5,4|
3,6,2.5|
3,7,8.5|
4,0,9.6|
4,1,7.1|
4,2,2.1|
4,3,8.2|
4,4,2.2|
4,5,7.9|
4,6,7.5|
4,7,0.041|
5,0,6.2|
5,1,1.8|
5,2,0.99|
5,3,1.3|
5,4,2.4|
5,5,9.7|
5,6,7.9|
5,7,8.6|
6,0,2|
6,1,7.9|
6,2,5.2|
6,3,8.3|
6,4,1.3|
6,5,8.8|
6,6,7.5|
6,7,6.7|
7,0,1.7|
7,1,3.3|
7,2,0.96|
7,3,8.4|
7,4,3.2|
7,5,0.88|
7,6,2.4|
7,7,5.2|
];
constraint_x10_x6=[
0,0,1.6|
0,1,2.1|
0,2,1.6|
0,3,2.1|
0,4,7.8|
0,5,3.9|
0,6,1.5|
0,7,6.4|
1,0,4|
1,1,4.9|
1,2,3.1|
1,3,6.3|
1,4,8.6|
1,5,5.4|
1,6,1.7|
1,7,5.6|
2,0,9.5|
2,1,5.4|
2,2,5|
2,3,7.8|
2,4,1.5|
2,5,8.5|
2,6,9.5|
2,7,9.2|
3,0,2.4|
3,1,1.7|
3,2,2.3|
3,3,6.3|
3,4,1.2|
3,5,3.3|
3,6,5.7|
3,7,5.3|
4,0,1.9|
4,1,4.6|
4,2,0.3|
4,3,4.5|
4,4,4.1|
4,5,4|
4,6,9.1|
4,7,6.9|
5,0,1.5|
5,1,0.0087|
5,2,9.5|
5,3,8.6|
5,4,6.9|
5,5,5.8|
5,6,1.9|
5,7,5.3|
6,0,6.8|
6,1,9.5|
6,2,8.6|
6,3,0.99|
6,4,5.3|
6,5,9.7|
6,6,3.5|
6,7,0.77|
7,0,7.1|
7,1,1.3|
7,2,3.9|
7,3,7.2|
7,4,7.2|
7,5,4.5|
7,6,9.5|
7,7,9.3|
];
constraint_x10_x9=[
0,0,6|
0,1,6.5|
0,2,2.5|
0,3,8.9|
0,4,10|
0,5,2.9|
0,6,0.97|
0,7,7.6|
1,0,2.5|
1,1,4.5|
1,2,0.63|
1,3,8.7|
1,4,1.5|
1,5,4.1|
1,6,7.5|
1,7,6.1|
2,0,8.1|
2,1,6.7|
2,2,7.6|
2,3,0.44|
2,4,5.1|
2,5,1.7|
2,6,2|
2,7,5.3|
3,0,5.2|
3,1,9|
3,2,0.97|
3,3,8.1|
3,4,1.8|
3,5,8.7|
3,6,0.74|
3,7,5.7|
4,0,9.7|
4,1,0.13|
4,2,6.7|
4,3,5.6|
4,4,7.6|
4,5,7.2|
4,6,3.2|
4,7,5.1|
5,0,6.9|
5,1,5.5|
5,2,9.9|
5,3,4.8|
5,4,2.9|
5,5,6.3|
5,6,2|
5,7,4.6|
6,0,2.2|
6,1,7.4|
6,2,3.1|
6,3,4.2|
6,4,6|
6,5,6.3|
6,6,5.1|
6,7,2.5|
7,0,7|
7,1,2.5|
7,2,3.6|
7,3,5.8|
7,4,9.5|
7,5,9.1|
7,6,7.8|
7,7,4|
];
constraint_x11_x7=[
0,0,6.1|
0,1,8.5|
0,2,8.3|
0,3,6.5|
0,4,2.3|
0,5,7.1|
0,6,5.8|
0,7,3|
1,0,9|
1,1,8.9|
1,2,4.2|
1,3,2.8|
1,4,9.9|
1,5,0.47|
1,6,5.5|
1,7,2.2|
2,0,9.7|
2,1,8.6|
2,2,8.9|
2,3,6.7|
2,4,2.4|
2,5,8.4|
2,6,2.5|
2,7,5.7|
3,0,7.4|
3,1,1.1|
3,2,7.8|
3,3,2.7|
3,4,6.2|
3,5,8.3|
3,6,3.8|
3,7,8|
4,0,4.8|
4,1,3.9|
4,2,9.6|
4,3,4.2|
4,4,4|
4,5,4.2|
4,6,6.4|
4,7,0.74|
5,0,0.75|
5,1,6.1|
5,2,8.1|
5,3,5.9|
5,4,8.4|
5,5,1.9|
5,6,3.2|
5,7,4.4|
6,0,3.8|
6,1,7.8|
6,2,9.3|
6,3,0.012|
6,4,3.1|
6,5,7.8|
6,6,1.2|
6,7,8.9|
7,0,9.1|
7,1,5.4|
7,2,1.2|
7,3,9.1|
7,4,8.5|
7,5,2.1|
7,6,1.4|
7,7,7.1|
];
constraint_x11_x10=[
0,0,7.2|
0,1,8|
0,2,8.3|
0,3,7.3|
0,4,4.2|
0,5,9.8|
0,6,8.2|
0,7,2.2|
1,0,1.8|
1,1,9.9|
1,2,7.4|
1,3,5.7|
1,4,6.2|
1,5,8.3|
1,6,8.6|
1,7,7.1|
2,0,3.9|
2,1,5.4|
2,2,6.9|
2,3,2.3|
2,4,6.3|
2,5,0.53|
2,6,8.8|
2,7,8.4|
3,0,1.1|
3,1,3.4|
3,2,4.6|
3,3,1.9|
3,4,9.1|
3,5,7.6|
3,6,1.3|
3,7,4.1|
4,0,2|
4,1,8.9|
4,2,2.2|
4,3,1.2|
4,4,9.1|
4,5,7.1|
4,6,3.9|
4,7,9.3|
5,0,8.5|
5,1,7.6|
5,2,2.3|
5,3,5.1|
5,4,8.8|
5,5,0.33|
5,6,0.43|
5,7,9.6|
6,0,2.5|
6,1,3.1|
6,2,4.7|
6,3,4.5|
6,4,3.9|
6,5,9.6|
6,6,0.27|
6,7,3.5|
7,0,7.1|
7,1,3.9|
7,2,9.1|
7,3,8|
7,4,5|
7,5,4.3|
7,6,2.2|
7,7,5.1|
];
constraint_x12_x8=[
0,0,8.1|
0,1,9.4|
0,2,1.8|
0,3,8|
0,4,1.3|
0,5,5|
0,6,6.9|
0,7,3.9|
1,0,5|
1,1,3.8|
1,2,4.3|
1,3,7.7|
1,4,5.1|
1,5,0.4|
1,6,4.5|
1,7,3.7|
2,0,8.5|
2,1,3.8|
2,2,2|
2,3,7.5|
2,4,6.4|
2,5,9.2|
2,6,0.45|
2,7,4.5|
3,0,1.3|
3,1,3.2|
3,2,3.7|
3,3,9.5|
3,4,6|
3,5,9.7|
3,6,6.1|
3,7,1.8|
4,0,5.7|
4,1,4.3|
4,2,3.7|
4,3,3.1|
4,4,3.2|
4,5,3.3|
4,6,3.2|
4,7,7.3|
5,0,2.7|
5,1,4.6|
5,2,9.4|
5,3,4.7|
5,4,3.6|
5,5,0.018|
5,6,3.9|
5,7,4.3|
6,0,7.4|
6,1,5.8|
6,2,3.7|
6,3,2|
6,4,4.9|
6,5,7.9|
6,6,7.3|
6,7,7.1|
7,0,1.4|
7,1,0.11|
7,2,1.8|
7,3,9.4|
7,4,6.8|
7,5,7.9|
7,6,1.5|
7,7,9.4|
];
constraint_x12_x11=[
0,0,2.6|
0,1,2.8|
0,2,3.6|
0,3,3.4|
0,4,9.5|
0,5,2.9|
0,6,0.71|
0,7,1.5|
1,0,3.6|
1,1,9.2|
1,2,5.3|
1,3,1.6|
1,4,5.7|
1,5,9.3|
1,6,0.76|
1,7,6.7|
2,0,0.26|
2,1,9.2|
2,2,4.9|
2,3,2.6|
2,4,2.3|
2,5,9.2|
2,6,4.4|
2,7,9.7|
3,0,8.8|
3,1,9.8|
3,2,6.5|
3,3,5.2|
3,4,0.25|
3,5,0.99|
3,6,1.5|
3,7,3.2|
4,0,9.7|
4,1,5.9|
4,2,6.4|
4,3,7|
4,4,1|
4,5,3.3|
4,6,5.3|
4,7,8.2|
5,0,5.5|
5,1,6.7|
5,2,1.2|
5,3,8|
5,4,6.7|
5,5,3.5|
5,6,0.14|
5,7,7.5|
6,0,3.9|
6,1,6.2|
6,2,9.8|
6,3,1.8|
6,4,9.9|
6,5,4.1|
6,6,0.83|
6,7,1.5|
7,0,4.1|
7,1,0.27|
7,2,4|
7,3,8.3|
7,4,5.2|
7,5,1.7|
7,6,6.5|
7,7,0.67|
];
constraint_x13_x9=[
0,0,6.4|
0,1,1.8|
0,2,7.2|
0,3,5.7|
0,4,3.2|
0,5,3.4|
0,6,6.5|
0,7,1.4|
1,0,4.6|
1,1,0.051|
1,2,3.4|
1,3,7.3|
1,4,3.6|
1,5,2.1|
1,6,6.6|
1,7,7.6|
2,0,1.2|
2,1,6.2|
2,2,7.8|
2,3,4.6|
2,4,5.2|
2,5,3.6|
2,6,1.8|
2,7,3.2|
3,0,3.7|
3,1,7.3|
3,2,6.2|
3,3,4|
3,4,8.2|
3,5,2.5|
3,6,0.76|
3,7,7.6|
4,0,3|
4,1,1.4|
4,2,3.5|
4,3,8.1|
4,4,7.3|
4,5,5.6|
4,6,4.6|
4,7,2.8|
5,0,5.7|
5,1,0.88|
5,2,3.6|
5,3,7.8|
5,4,1.3|
5,5,1.8|
5,6,6.4|
5,7,2.4|
6,0,5.5|
6,1,7|
6,2,5.3|
6,3,6.8|
6,4,8.3|
6,5,8.8|
6,6,5.5|
6,7,2.7|
7,0,8|
7,1,9.9|
7,2,1.6|
7,3,4.9|
7,4,9.6|
7,5,5|
7,6,9|
7,7,6|
];
constraint_x14_x10=[
0,0,3.9|
0,1,4.2|
0,2,0.56|
0,3,6.7|
0,4,0.95|
0,5,7.1|
0,6,7.9|
0,7,4.8|
1,0,0.048|
1,1,4|
1,2,6.4|
1,3,6.9|
1,4,4.5|
1,5,8.5|
1,6,2.8|
1,7,6.2|
2,0,4.1|
2,1,6.8|
2,2,2.5|
2,3,8.2|
2,4,6.1|
2,5,5.2|
2,6,2.8|
2,7,5.6|
3,0,10|
3,1,5.9|
3,2,6.9|
3,3,9.8|
3,4,9.1|
3,5,8.3|
3,6,7.7|
3,7,2.2|
4,0,3.1|
4,1,4.7|
4,2,6.3|
4,3,2.7|
4,4,1.5|
4,5,4|
4,6,7|
4,7,0.91|
5,0,5.5|
5,1,7.1|
5,2,5.5|
5,3,2.4|
5,4,1.2|
5,5,1.9|
5,6,7.9|
5,7,6.7|
6,0,9.5|
6,1,0.46|
6,2,5.1|
6,3,5.2|
6,4,1.6|
6,5,8.5|
6,6,3.3|
6,7,10|
7,0,4.8|
7,1,4.7|
7,2,4.4|
7,3,3.3|
7,4,2.5|
7,5,7.3|
7,6,7.9|
7,7,8.7|
];
constraint_x15_x11=[
0,0,9.8|
0,1,5.4|
0,2,0.16|
0,3,2.8|
0,4,7.3|
0,5,3|
0,6,5.5|
0,7,1.8|
1,0,8.9|
1,1,8.8|
1,2,1.1|
1,3,2.9|
1,4,6.4|
1,5,7.9|
1,6,5.7|
1,7,4.8|
2,0,8.5|
2,1,6.7|
2,2,5.1|
2,3,5.1|
2,4,5.8|
2,5,9.8|
2,6,1.6|
2,7,4.2|
3,0,6.2|
3,1,7.2|
3,2,3|
3,3,6.4|
3,4,6|
3,5,9.4|
3,6,9.6|
3,7,5.2|
4,0,2.1|
4,1,9|
4,2,4.9|
4,3,2.2|
4,4,3.9|
4,5,4.5|
4,6,9.8|
4,7,2.6|
5,0,9.4|
5,1,0.3|
5,2,9.8|
5,3,8.5|
5,4,3|
5,5,6|
5,6,8.6|
5,7,6.6|
6,0,7.3|
6,1,3.7|
6,2,1.5|
6,3,3.5|
6,4,8.5|
6,5,3|
6,6,4.4|
6,7,3.2|
7,0,6.9|
7,1,6.5|
7,2,3|
7,3,9|
7,4,7.2|
7,5,6.9|
7,6,8.7|
7,7,0.15|
];
constraint_x16_x12=[
0,0,7.7|
0,1,3.8|
0,2,6.9|
0,3,3.3|
0,4,9.8|
0,5,9.3|
0,6,5.6|
0,7,5.6|
1,0,0.76|
1,1,6.2|
1,2,4.1|
1,3,8.8|
1,4,2.1|
1,5,8.1|
1,6,1.3|
1,7,3.3|
2,0,9.6|
2,1,0.071|
2,2,0.64|
2,3,6.4|
2,4,3.5|
2,5,9.1|
2,6,8|
2,7,6.1|
3,0,3.6|
3,1,5.8|
3,2,9.9|
3,3,9.9|
3,4,6|
3,5,6|
3,6,1.6|
3,7,0.94|
4,0,6.2|
4,1,3|
4,2,8.6|
4,3,4.7|
4,4,0.2|
4,5,1.2|
4,6,1.1|
4,7,9.1|
5,0,5.4|
5,1,9.6|
5,2,4.7|
5,3,4.8|
5,4,7.5|
5,5,2.4|
5,6,3.1|
5,7,2.1|
6,0,6|
6,1,5.5|
6,2,10|
6,3,3.2|
6,4,5.5|
6,5,0.32|
6,6,9.8|
6,7,6.5|
7,0,3.3|
7,1,6.5|
7,2,4|
7,3,0.99|
7,4,7|
7,5,5|
7,6,5.5|
7,7,8.2|
];
constraint_x17_x13=[
0,0,7.1|
0,1,3.8|
0,2,2.1|
0,3,7.9|
0,4,0.21|
0,5,7.2|
0,6,1.2|
0,7,8.1|
1,0,9.6|
1,1,8.2|
1,2,1.5|
1,3,8.8|
1,4,5.8|
1,5,5|
1,6,2.5|
1,7,6|
2,0,9.2|
2,1,7.6|
2,2,6.3|
2,3,3.4|
2,4,2.1|
2,5,2.6|
2,6,1.4|
2,7,3.8|
3,0,3.8|
3,1,5.7|
3,2,4.8|
3,3,5.6|
3,4,5.6|
3,5,0.5|
3,6,7.9|
3,7,6.1|
4,0,2.2|
4,1,9.1|
4,2,4.5|
4,3,6.1|
4,4,3.9|
4,5,8.4|
4,6,0.7|
4,7,6.2|
5,0,6.3|
5,1,6.9|
5,2,6.9|
5,3,2|
5,4,6.9|
5,5,9.5|
5,6,0.16|
5,7,3.3|
6,0,8.2|
6,1,1.8|
6,2,7.1|
6,3,7.5|
6,4,0.35|
6,5,4.5|
6,6,9.9|
6,7,1.5|
7,0,6.3|
7,1,2.4|
7,2,5.3|
7,3,9.4|
7,4,6|
7,5,9.9|
7,6,4.7|
7,7,1.5|
];
constraint_x18_x14=[
0,0,2.6|
0,1,6.7|
0,2,1.1|
0,3,7.7|
0,4,9.6|
0,5,8.2|
0,6,4.9|
0,7,6.8|
1,0,9.7|
1,1,7.5|
1,2,0.89|
1,3,3.6|
1,4,7.6|
1,5,3|
1,6,1.1|
1,7,7.4|
2,0,8.8|
2,1,5.5|
2,2,7.3|
2,3,9|
2,4,3.4|
2,5,7.9|
2,6,9.7|
2,7,2|
3,0,0.81|
3,1,0.22|
3,2,2.4|
3,3,4.6|
3,4,4.9|
3,5,5.6|
3,6,0.51|
3,7,4.6|
4,0,3.3|
4,1,2.8|
4,2,7.9|
4,3,8.3|
4,4,0.62|
4,5,7.5|
4,6,4.5|
4,7,7.4|
5,0,5.9|
5,1,5.2|
5,2,5.3|
5,3,9.7|
5,4,4.4|
5,5,8.2|
5,6,6.7|
5,7,3.6|
6,0,4.8|
6,1,5.8|
6,2,0.52|
6,3,1.8|
6,4,7.8|
6,5,4.6|
6,6,6.6|
6,7,8.3|
7,0,9.3|
7,1,9.8|
7,2,5.3|
7,3,2.4|
7,4,9.3|
7,5,4.8|
7,6,3|
7,7,6.2|
];
constraint_x19_x15=[
0,0,9.7|
0,1,8.8|
0,2,5.2|
0,3,3|
0,4,5.5|
0,5,5.1|
0,6,9.8|
0,7,0.63|
1,0,5.6|
1,1,3.9|
1,2,7.9|
1,3,3.2|
1,4,3.4|
1,5,7.3|
1,6,4.9|
1,7,3.1|
2,0,6.7|
2,1,3.6|
2,2,7.8|
2,3,9.3|
2,4,1.9|
2,5,3.4|
2,6,0.32|
2,7,2.7|
3,0,8.7|
3,1,9.5|
3,2,3.7|
3,3,9.8|
3,4,5.1|
3,5,5.8|
3,6,7.8|
3,7,1.5|
4,0,5.1|
4,1,7.3|
4,2,0.97|
4,3,2.4|
4,4,5.9|
4,5,4.7|
4,6,0.3|
4,7,7.9|
5,0,1.7|
5,1,6.1|
5,2,9.9|
5,3,9.6|
5,4,3.5|
5,5,9.6|
5,6,3.7|
5,7,8.6|
6,0,0.81|
6,1,9|
6,2,2.7|
6,3,4.2|
6,4,2|
6,5,9.7|
6,6,9|
6,7,9|
7,0,0.7|
7,1,7.5|
7,2,1.2|
7,3,6.6|
7,4,4.6|
7,5,3.4|
7,6,5.5|
7,7,3.4|
];
constraint_x20_x16=[
0,0,5.8|
0,1,7.1|
0,2,9.5|
0,3,9.8|
0,4,1.4|
0,5,7.6|
0,6,5.6|
0,7,6.5|
1,0,9|
1,1,7.7|
1,2,3.8|
1,3,8.2|
1,4,5.9|
1,5,8.8|
1,6,0.5|
1,7,6.1|
2,0,1|
2,1,9|
2,2,6.6|
2,3,2.1|
2,4,3.1|
2,5,1.8|
2,6,9.8|
2,7,3.5|
3,0,4|
3,1,2.2|
3,2,3.1|
3,3,1.1|
3,4,6.3|
3,5,5.3|
3,6,2.9|
3,7,5|
4,0,1.6|
4,1,2.4|
4,2,5.7|
4,3,8.4|
4,4,4.3|
4,5,1.1|
4,6,0.66|
4,7,0.8|
5,0,5.7|
5,1,8.3|
5,2,3.4|
5,3,9.3|
5,4,4.7|
5,5,3.1|
5,6,6.8|
5,7,5.8|
6,0,9.1|
6,1,5.9|
6,2,3.4|
6,3,7.6|
6,4,8.6|
6,5,1.6|
6,6,0.91|
6,7,6.3|
7,0,1.5|
7,1,6.5|
7,2,8.7|
7,3,5.5|
7,4,9.4|
7,5,4.1|
7,6,9|
7,7,9.5|
];
constraint_x1_y1=[
0,0,5.1|
0,1,6.9|
0,2,3.5|
0,3,7.7|
0,4,7.9|
0,5,0.84|
0,6,5.6|
0,7,0.91|
1,0,4.1|
1,1,4|
1,2,6.1|
1,3,8.9|
1,4,8.9|
1,5,4.7|
1,6,3.3|
1,7,0.52|
2,0,3.9|
2,1,6|
2,2,2.1|
2,3,0.16|
2,4,1.8|
2,5,1.1|
2,6,2.2|
2,7,8.3|
3,0,2.8|
3,1,4.8|
3,2,8.1|
3,3,3.7|
3,4,6.4|
3,5,7.5|
3,6,5.9|
3,7,3.8|
4,0,7.8|
4,1,0.53|
4,2,3.2|
4,3,2.3|
4,4,5.5|
4,5,5.2|
4,6,5.2|
4,7,4.8|
5,0,8.7|
5,1,4.3|
5,2,4.5|
5,3,2.9|
5,4,0.61|
5,5,8.3|
5,6,4|
5,7,6.5|
6,0,2.3|
6,1,8.1|
6,2,5.2|
6,3,8.2|
6,4,7|
6,5,1.2|
6,6,5.8|
6,7,5.2|
7,0,2.9|
7,1,5.8|
7,2,8.1|
7,3,4.9|
7,4,0.77|
7,5,2.4|
7,6,2.8|
7,7,3.9|
];
constraint_x2_y2=[
0,0,4.7|
0,1,4.8|
0,2,1.5|
0,3,8.6|
0,4,4.2|
0,5,4.1|
0,6,3.5|
0,7,3|
1,0,6.2|
1,1,4.3|
1,2,1.3|
1,3,5.9|
1,4,5.2|
1,5,0.84|
1,6,2.2|
1,7,1.6|
2,0,8.9|
2,1,7.2|
2,2,9.5|
2,3,7.9|
2,4,6.1|
2,5,9.2|
2,6,9.5|
2,7,5|
3,0,1.7|
3,1,2.8|
3,2,2.1|
3,3,4.1|
3,4,8.5|
3,5,5.7|
3,6,0.21|
3,7,8.7|
4,0,2|
4,1,0.53|
4,2,5.8|
4,3,0.42|
4,4,0.87|
4,5,7.2|
4,6,0.095|
4,7,3|
5,0,5.6|
5,1,8.7|
5,2,8.4|
5,3,1.9|
5,4,5.6|
5,5,7.2|
5,6,5.2|
5,7,9|
6,0,3.6|
6,1,9|
6,2,0.053|
6,3,2.3|
6,4,9.5|
6,5,8.4|
6,6,5.9|
6,7,4.1|
7,0,9.1|
7,1,4.1|
7,2,0.21|
7,3,9.5|
7,4,1.9|
7,5,7.6|
7,6,3.2|
7,7,9.2|
];
constraint_x3_y3=[
0,0,2.9|
0,1,2.2|
0,2,1.2|
0,3,1.8|
0,4,8.8|
0,5,9|
0,6,4.1|
0,7,7|
1,0,1.5|
1,1,2.6|
1,2,5.1|
1,3,9.6|
1,4,0.14|
1,5,0.038|
1,6,4.3|
1,7,1.9|
2,0,1.7|
2,1,9.2|
2,2,8.9|
2,3,7.8|
2,4,5|
2,5,9.3|
2,6,1.1|
2,7,3.3|
3,0,4.4|
3,1,4.7|
3,2,7.5|
3,3,1.4|
3,4,4.4|
3,5,9.4|
3,6,2.4|
3,7,1.5|
4,0,4.4|
4,1,2.9|
4,2,1.5|
4,3,9.5|
4,4,0.3|
4,5,4.1|
4,6,3.7|
4,7,3.4|
5,0,5.4|
5,1,4.4|
5,2,7.9|
5,3,9.2|
5,4,1.3|
5,5,9.3|
5,6,2.5|
5,7,7.5|
6,0,1.4|
6,1,1.1|
6,2,1.6|
6,3,2.7|
6,4,3.9|
6,5,2.5|
6,6,4.5|
6,7,7|
7,0,8.1|
7,1,8.5|
7,2,9.9|
7,3,3.6|
7,4,3.6|
7,5,6.2|
7,6,2.2|
7,7,4.5|
];
constraint_x4_y4=[
0,0,1.1|
0,1,0.29|
0,2,2|
0,3,4.4|
0,4,2.5|
0,5,2.6|
0,6,8.9|
0,7,6.7|
1,0,5.4|
1,1,9.3|
1,2,5.8|
1,3,1.8|
1,4,0.52|
1,5,5.4|
1,6,6.4|
1,7,2.5|
2,0,9.3|
2,1,0.65|
2,2,9.7|
2,3,8.3|
2,4,5.2|
2,5,5.7|
2,6,0.44|
2,7,1.9|
3,0,7.9|
3,1,0.43|
3,2,7|
3,3,8.7|
3,4,4.6|
3,5,4|
3,6,4.7|
3,7,6.8|
4,0,7.7|
4,1,2.6|
4,2,8.3|
4,3,7.5|
4,4,8.3|
4,5,6.1|
4,6,3.9|
4,7,7.1|
5,0,4.8|
5,1,5.1|
5,2,1.5|
5,3,5.6|
5,4,5|
5,5,4.5|
5,6,1.3|
5,7,4|
6,0,6.5|
6,1,5.8|
6,2,2.7|
6,3,3.4|
6,4,2.8|
6,5,3.9|
6,6,6|
6,7,5.8|
7,0,5|
7,1,7.8|
7,2,3.5|
7,3,3.4|
7,4,1.7|
7,5,0.32|
7,6,0.46|
7,7,2.7|
];
constraint_x5_y5=[
0,0,6|
0,1,5.3|
0,2,4.7|
0,3,6.6|
0,4,8.4|
0,5,8.5|
0,6,3.7|
0,7,5.6|
1,0,4.2|
1,1,1.3|
1,2,5.6|
1,3,6.6|
1,4,6.7|
1,5,7.6|
1,6,9.9|
1,7,6.1|
2,0,6.4|
2,1,6.8|
2,2,2.7|
2,3,8.9|
2,4,6|
2,5,3.3|
2,6,4.3|
2,7,0.87|
3,0,1.8|
3,1,1.5|
3,2,8.4|
3,3,3.8|
3,4,0.58|
3,5,9.6|
3,6,5.9|
3,7,7.3|
4,0,1.5|
4,1,1.6|
4,2,9.7|
4,3,6.6|
4,4,2.6|
4,5,1.9|
4,6,7.7|
4,7,1|
5,0,4.7|
5,1,0.58|
5,2,8.5|
5,3,6.2|
5,4,3|
5,5,2.4|
5,6,1.1|
5,7,4.7|
6,0,6.5|
6,1,0.52|
6,2,1.4|
6,3,0.071|
6,4,2.7|
6,5,2.8|
6,6,2|
6,7,2|
7,0,8.8|
7,1,9.6|
7,2,7.3|
7,3,4.2|
7,4,5.3|
7,5,8.9|
7,6,3.6|
7,7,2.5|
];
constraint_x6_y6=[
0,0,3.6|
0,1,9.1|
0,2,8|
0,3,1.1|
0,4,1.1|
0,5,1.6|
0,6,9.9|
0,7,4.1|
1,0,4.7|
1,1,2.5|
1,2,8.2|
1,3,3|
1,4,6.7|
1,5,2.1|
1,6,8.8|
1,7,3.3|
2,0,8.4|
2,1,4|
2,2,8.6|
2,3,6.5|
2,4,1.2|
2,5,5.5|
2,6,6.2|
2,7,2.6|
3,0,9.4|
3,1,2.2|
3,2,9.2|
3,3,5.2|
3,4,8.2|
3,5,2.4|
3,6,4|
3,7,2.8|
4,0,8.7|
4,1,7.3|
4,2,2.5|
4,3,4.1|
4,4,9.3|
4,5,8.2|
4,6,0.19|
4,7,7.2|
5,0,7.9|
5,1,3|
5,2,9.8|
5,3,8.4|
5,4,5.1|
5,5,5.4|
5,6,0.74|
5,7,5.2|
6,0,6.8|
6,1,8.2|
6,2,7.8|
6,3,0.49|
6,4,1.4|
6,5,1.2|
6,6,6.5|
6,7,6|
7,0,7.1|
7,1,6.4|
7,2,9.8|
7,3,0.19|
7,4,3.9|
7,5,6.8|
7,6,5.3|
7,7,0.26|
];
constraint_x7_y7=[
0,0,0.6|
0,1,9.6|
0,2,10|
0,3,4.8|
0,4,8.2|
0,5,7.4|
0,6,6.1|
0,7,0.046|
1,0,1.8|
1,1,0.1|
1,2,2.1|
1,3,9.7|
1,4,4.5|
1,5,3.3|
1,6,0.3|
1,7,2.8|
2,0,2|
2,1,6.2|
2,2,1.7|
2,3,0.31|
2,4,5.1|
2,5,9.2|
2,6,3.4|
2,7,9.1|
3,0,3.1|
3,1,6.8|
3,2,1|
3,3,0.051|
3,4,2.1|
3,5,3.9|
3,6,1.6|
3,7,3.2|
4,0,4.2|
4,1,5.5|
4,2,1.2|
4,3,4.7|
4,4,6.5|
4,5,1.4|
4,6,9.1|
4,7,8.9|
5,0,6.5|
5,1,2.9|
5,2,6.2|
5,3,1.6|
5,4,1.3|
5,5,6.8|
5,6,1.3|
5,7,2.8|
6,0,2.7|
6,1,6.1|
6,2,2|
6,3,4.3|
6,4,1.3|
6,5,7.3|
6,6,4|
6,7,7.7|
7,0,9.7|
7,1,1.5|
7,2,1.4|
7,3,6.7|
7,4,3.2|
7,5,4.9|
7,6,3.2|
7,7,7|
];
constraint_x8_y8=[
0,0,5.3|
0,1,2.6|
0,2,3.1|
0,3,0.0011|
0,4,3.2|
0,5,6.3|
0,6,9.2|
0,7,7.8|
1,0,8.5|
1,1,5.3|
1,2,0.44|
1,3,2.6|
1,4,7.5|
1,5,8.2|
1,6,2.6|
1,7,6.1|
2,0,6.9|
2,1,2.8|
2,2,5.6|
2,3,6.9|
2,4,2.3|
2,5,7.1|
2,6,6.4|
2,7,8.1|
3,0,5.4|
3,1,6.8|
3,2,3.6|
3,3,2.5|
3,4,0.59|
3,5,6.6|
3,6,3.8|
3,7,0.72|
4,0,0.38|
4,1,1.8|
4,2,9.8|
4,3,0.93|
4,4,4.3|
4,5,7.6|
4,6,5.4|
4,7,5.4|
5,0,5.3|
5,1,7.6|
5,2,1.3|
5,3,7.5|
5,4,9.7|
5,5,3.5|
5,6,2|
5,7,0.054|
6,0,7.9|
6,1,5.7|
6,2,4.6|
6,3,5.4|
6,4,0.041|
6,5,7.8|
6,6,2.8|
6,7,4.2|
7,0,7.2|
7,1,7.8|
7,2,4.8|
7,3,8.3|
7,4,8.2|
7,5,7.6|
7,6,0.44|
7,7,6.7|
];
constraint_x9_y9=[
0,0,6.7|
0,1,9.7|
0,2,5|
0,3,5.8|
0,4,5.9|
0,5,9.6|
0,6,10|
0,7,1.1|
1,0,9.8|
1,1,2.6|
1,2,3.5|
1,3,1.4|
1,4,3.7|
1,5,5.9|
1,6,6.7|
1,7,7.1|
2,0,2.2|
2,1,8.7|
2,2,7.6|
2,3,0.93|
2,4,4.9|
2,5,3.4|
2,6,0.54|
2,7,9.4|
3,0,2.8|
3,1,7.9|
3,2,9.4|
3,3,9.1|
3,4,0.13|
3,5,8.6|
3,6,7.5|
3,7,7.1|
4,0,5.7|
4,1,2.4|
4,2,9.1|
4,3,6|
4,4,2.2|
4,5,9.1|
4,6,4.4|
4,7,6.9|
5,0,3.4|
5,1,6.8|
5,2,4.2|
5,3,0.94|
5,4,2|
5,5,9.3|
5,6,1|
5,7,9.6|
6,0,7.9|
6,1,3.9|
6,2,6.7|
6,3,5.4|
6,4,9|
6,5,7.4|
6,6,1.1|
6,7,10|
7,0,3.1|
7,1,6.4|
7,2,3.5|
7,3,7.7|
7,4,3.6|
7,5,8.7|
7,6,9.5|
7,7,2.4|
];
initial_distribution_y1=[0.24,0.11,0.089,0.13,0.028,0.14,0.19,0.068];
initial_distribution_y2=[0.21,0.11,0.21,0.084,0.072,0.27,0.0031,0.039];
initial_distribution_y3=[0.24,0.28,0.0064,0.1,0.1,0.045,0.096,0.13];
initial_distribution_y4=[0.056,0.17,0.16,0.044,0.16,0.19,0.08,0.15];
initial_distribution_y5=[0.14,0.16,0.16,0.036,0.017,0.19,0.09,0.21];
initial_distribution_y6=[0.15,0.0063,0.2,0.15,0.061,0.19,0.14,0.096];
initial_distribution_y7=[0.057,0.06,0.14,0.13,0.15,0.11,0.18,0.18];
initial_distribution_y8=[0.29,0.26,0.073,0.026,0.094,0.074,0.048,0.14];
initial_distribution_y9=[0.18,0.13,0.093,0.014,0.14,0.028,0.22,0.2];
transition_y1=[
0.17,0.16,0.18,0.11,0.017,0.067,0.22,0.068|
0.14,0.14,0.092,0.11,0.11,0.24,0.017,0.15|
0.18,0.14,0.086,0.022,0.18,0.069,0.14,0.18|
0.078,0.13,0.13,0.074,0.057,0.25,0.2,0.08|
0.055,0.023,0.068,0.24,0.17,0.22,0.025,0.2|
0.17,0.0065,0.21,0.13,0.049,0.16,0.06,0.21|
0.046,0.11,0.14,0.15,0.12,0.063,0.21,0.16|
0.19,0.059,0.16,0.14,0.0024,0.19,0.1,0.14|
];
transition_y2=[
0.12,0.09,0.066,0.049,0.18,0.19,0.07,0.23|
0.054,0.059,0.19,0.075,0.15,0.1,0.17,0.2|
0.14,0.26,0.25,0.0058,0.12,0.13,0.072,0.029|
0.1,0.079,0.19,0.16,0.13,0.15,0.058,0.13|
0.077,0.11,0.019,0.17,0.14,0.23,0.2,0.053|
0.04,0.058,0.09,0.19,0.16,0.16,0.11,0.19|
0.13,0.18,0.053,0.069,0.18,0.15,0.071,0.17|
0.19,0.068,0.086,0.14,0.13,0.13,0.19,0.071|
];
transition_y3=[
0.17,0.19,0.015,0.03,0.032,0.17,0.17,0.22|
0.021,0.072,0.019,0.013,0.22,0.21,0.22,0.23|
0.13,0.11,0.15,0.024,0.096,0.18,0.18,0.13|
0.16,0.018,0.068,0.12,0.25,0.093,0.061,0.23|
0.14,0.018,0.16,0.21,0.17,0.074,0.0074,0.21|
0.29,0.11,0.14,0.027,0.15,0.04,0.029,0.21|
0.095,0.05,0.086,0.17,0.094,0.18,0.15,0.18|
0.2,0.17,0.14,0.073,0.16,0.076,0.11,0.07|
];
transition_y4=[
0.12,0.19,0.15,0.0079,0.14,0.13,0.14,0.12|
0.014,0.18,0.15,0.27,0.11,0.12,0.095,0.057|
0.19,0.14,0.24,0.037,0.057,0.076,0.1,0.16|
0.086,0.24,0.11,0.24,0.054,0.14,0.032,0.11|
0.13,0.15,0.081,0.18,0.075,0.19,0.1,0.093|
0.14,0.11,0.14,0.23,0.24,0.082,0.053,0.0027|
0.11,0.15,0.11,0.1,0.1,0.071,0.19,0.17|
0.015,0.031,0.18,0.035,0.23,0.11,0.17,0.22|
];
transition_y5=[
0.16,0.14,0.045,0.13,0.11,0.17,0.12,0.13|
0.21,0.18,0.069,0.2,0.14,0.19,0.0055,0.009|
0.21,0.18,0.14,0.0062,0.038,0.18,0.093,0.15|
0.0061,0.095,0.23,0.061,0.12,0.22,0.027,0.24|
0.13,0.1,0.05,0.22,0.2,0.014,0.24,0.053|
0.016,0.049,0.25,0.021,0.27,0.13,0.2,0.052|
0.18,0.055,0.27,0.25,0.026,0.027,0.061,0.13|
0.15,0.11,0.013,0.12,0.23,0.2,0.16,0.016|
];
transition_y6=[
0.18,0.052,0.24,0.048,0.07,0.11,0.16,0.13|
0.18,0.14,0.085,0.084,0.086,0.16,0.046,0.21|
0.16,0.16,0.19,0.046,0.1,0.13,0.14,0.078|
0.04,0.14,0.14,0.17,0.13,0.16,0.15,0.069|
0.19,0.14,0.054,0.17,0.12,0.071,0.19,0.061|
0.22,0.074,0.051,0.2,0.21,0.11,0.087,0.06|
0.012,0.045,0.23,0.2,0.13,0.14,0.17,0.078|
0.1,0.16,0.2,0.12,0.051,0.25,0.062,0.051|
];
transition_y7=[
0.11,0.19,0.2,0.19,0.12,0.077,0.084,0.025|
0.1,0.15,0.16,0.11,0.14,0.16,0.1,0.084|
0.032,0.095,0.08,0.24,0.067,0.044,0.12,0.32|
0.22,0.16,0.13,0.048,0.17,0.11,0.15,0.011|
0.15,0.071,0.19,0.027,0.18,0.084,0.19,0.11|
0.0069,0.092,0.17,0.024,0.061,0.32,0.082,0.24|
0.17,0.2,0.18,0.028,0.1,0.12,0.15,0.06|
0.19,0.051,0.044,0.19,0.16,0.14,0.071,0.16|
];
transition_y8=[
0.044,0.16,0.069,0.011,0.21,0.17,0.19,0.15|
0.088,0.078,0.26,0.24,0.017,0.16,0.035,0.11|
0.14,0.17,0.17,0.071,0.13,0.031,0.12,0.17|
0.16,0.16,0.16,0.12,0.2,0.066,0.12,0.013|
0.16,0.059,0.084,0.033,0.21,0.24,0.14,0.072|
0.0055,0.14,0.07,0.065,0.21,0.13,0.19,0.2|
0.14,0.19,0.16,0.23,0.04,0.057,0.055,0.13|
0.11,0.19,0.031,0.19,0.13,0.16,0.052,0.14|
];
transition_y9=[
0.12,0.23,0.14,0.17,0.16,0.065,0.077,0.028|
0.058,0.083,0.21,0.033,0.17,0.19,0.093,0.16|
0.13,0.01,0.2,0.25,0.2,0.11,0.041,0.066|
0.31,0.0083,0.095,0.0046,0.2,0.056,0.31,0.014|
0.022,0.09,0.14,0.065,0.29,0.096,0.16,0.13|
0.072,0.21,0.062,0.22,0.18,0.036,0.087,0.14|
0.23,0.094,0.051,0.014,0.24,0.21,0.066,0.09|
0.021,0.22,0.23,0.11,0.16,0.12,0.038,0.1|
];
